fibre = [2.40,1.60,0.05,0.05,0.05,0.05,3.83,3.00];
sugar = [9.35,8.49,0.45,0.45,0.45,3.60,2.63,8.99];
cost = [0.69,1.99,3.30,2.72,2.30,0.53,1.74,0.50];
satfat = [0.02,0.07,3.10,9.67,1.26,0.40,2.10,0.03];
protein = [0.94,1.00,20.42,18.99,23.33,10.00,1.43,1.14];
Food = {Orange,Cherry,Salmon,Duck,Tuna,Greek Yogurt,Red cabbage,Kiwifruit};
